NAME: tsptoy-10.tsp
TYPE: TSP
COMMENT: TSP-ToyProblem-10-100-300
DIMENSION: 10
EDGE_WEIGHT_TYPE: EUC_2D
NODE_COORD_SECTION
1 137 100
2 216 278
3 276 285
4 153 187
5 176 227
6 171 104
7 210 186
8 160 219
9 236 290
10 176 218
EOF